data/lp_files/pEFS/123_8.lp
\ Model foo
\ LP format - for model browsing. Use MPS format to capture full model detail.
Minimize
  z
Subject To
 allocateEach[1]: x[1,1] + x[2,1] + x[3,1] + x[4,1] + x[5,1] + x[6,1]
   + x[7,1] = 1
 allocateEach[2]: x[1,2] + x[2,2] + x[3,2] + x[4,2] + x[5,2] + x[6,2]
   + x[7,2] = 1
 allocateEach[3]: x[1,3] + x[2,3] + x[3,3] + x[4,3] + x[5,3] + x[6,3]
   + x[7,3] = 1
 allocateAllCash: cashProportion[1] + cashProportion[2] + cashProportion[3]
   + cashProportion[4] + cashProportion[5] + cashProportion[6]
   + cashProportion[7] = 1
 findWorstP[1,2]: z + 0.3581501544522541 cashProportion[1]
   - 0.3581501544522541 cashProportion[2] + 0.0499171777767829 x[1,1]
   + 0.2658817209114921 x[1,2] + 0.3260509468594708 x[1,3]
   - 0.0499171777767829 x[2,1] - 0.2658817209114921 x[2,2]
   - 0.3260509468594708 x[2,3] >= 0
 findWorstP[1,3]: z + 0.3581501544522541 cashProportion[1]
   - 0.3581501544522541 cashProportion[3] + 0.0499171777767829 x[1,1]
   + 0.2658817209114921 x[1,2] + 0.3260509468594708 x[1,3]
   - 0.0499171777767829 x[3,1] - 0.2658817209114921 x[3,2]
   - 0.3260509468594708 x[3,3] >= 0
 findWorstP[1,4]: z + 0.3581501544522541 cashProportion[1]
   - 0.3581501544522541 cashProportion[4] + 0.0499171777767829 x[1,1]
   + 0.2658817209114921 x[1,2] + 0.3260509468594708 x[1,3]
   - 0.0499171777767829 x[4,1] - 0.2658817209114921 x[4,2]
   - 0.3260509468594708 x[4,3] >= 0
 findWorstP[1,5]: z + 0.3581501544522541 cashProportion[1]
   - 0.3581501544522541 cashProportion[5] + 0.0499171777767829 x[1,1]
   + 0.2658817209114921 x[1,2] + 0.3260509468594708 x[1,3]
   - 0.0499171777767829 x[5,1] - 0.2658817209114921 x[5,2]
   - 0.3260509468594708 x[5,3] >= 0
 findWorstP[1,6]: z + 0.3581501544522541 cashProportion[1]
   - 0.3581501544522541 cashProportion[6] + 0.0499171777767829 x[1,1]
   + 0.2658817209114921 x[1,2] + 0.3260509468594708 x[1,3]
   - 0.0499171777767829 x[6,1] - 0.2658817209114921 x[6,2]
   - 0.3260509468594708 x[6,3] >= 0
 findWorstP[1,7]: z + 0.3581501544522541 cashProportion[1]
   - 0.3581501544522541 cashProportion[7] + 0.0499171777767829 x[1,1]
   + 0.2658817209114921 x[1,2] + 0.3260509468594708 x[1,3]
   - 0.0499171777767829 x[7,1] - 0.2658817209114921 x[7,2]
   - 0.3260509468594708 x[7,3] >= 0
 findWorstP[2,1]: z - 0.4068348250610253 cashProportion[1]
   + 0.4068348250610253 cashProportion[2] - 0.152766476810415 x[1,1]
   - 0.1401037428803906 x[1,2] - 0.3002949552481692 x[1,3]
   + 0.152766476810415 x[2,1] + 0.1401037428803906 x[2,2]
   + 0.3002949552481692 x[2,3] >= 0
 findWorstP[2,3]: z + 0.4068348250610253 cashProportion[2]
   - 0.4068348250610253 cashProportion[3] + 0.152766476810415 x[2,1]
   + 0.1401037428803906 x[2,2] + 0.3002949552481692 x[2,3]
   - 0.152766476810415 x[3,1] - 0.1401037428803906 x[3,2]
   - 0.3002949552481692 x[3,3] >= 0
 findWorstP[2,4]: z + 0.4068348250610253 cashProportion[2]
   - 0.4068348250610253 cashProportion[4] + 0.152766476810415 x[2,1]
   + 0.1401037428803906 x[2,2] + 0.3002949552481692 x[2,3]
   - 0.152766476810415 x[4,1] - 0.1401037428803906 x[4,2]
   - 0.3002949552481692 x[4,3] >= 0
 findWorstP[2,5]: z + 0.4068348250610253 cashProportion[2]
   - 0.4068348250610253 cashProportion[5] + 0.152766476810415 x[2,1]
   + 0.1401037428803906 x[2,2] + 0.3002949552481692 x[2,3]
   - 0.152766476810415 x[5,1] - 0.1401037428803906 x[5,2]
   - 0.3002949552481692 x[5,3] >= 0
 findWorstP[2,6]: z + 0.4068348250610253 cashProportion[2]
   - 0.4068348250610253 cashProportion[6] + 0.152766476810415 x[2,1]
   + 0.1401037428803906 x[2,2] + 0.3002949552481692 x[2,3]
   - 0.152766476810415 x[6,1] - 0.1401037428803906 x[6,2]
   - 0.3002949552481692 x[6,3] >= 0
 findWorstP[2,7]: z + 0.4068348250610253 cashProportion[2]
   - 0.4068348250610253 cashProportion[7] + 0.152766476810415 x[2,1]
   + 0.1401037428803906 x[2,2] + 0.3002949552481692 x[2,3]
   - 0.152766476810415 x[7,1] - 0.1401037428803906 x[7,2]
   - 0.3002949552481692 x[7,3] >= 0
 findWorstP[3,1]: z - 0.3412532525700636 cashProportion[1]
   + 0.3412532525700636 cashProportion[3] - 0.3908202875058653 x[1,1]
   - 0.1594505822633622 x[1,2] - 0.108475877660709 x[1,3]
   + 0.3908202875058653 x[3,1] + 0.1594505822633622 x[3,2]
   + 0.108475877660709 x[3,3] >= 0
 findWorstP[3,2]: z - 0.3412532525700636 cashProportion[2]
   + 0.3412532525700636 cashProportion[3] - 0.3908202875058653 x[2,1]
   - 0.1594505822633622 x[2,2] - 0.108475877660709 x[2,3]
   + 0.3908202875058653 x[3,1] + 0.1594505822633622 x[3,2]
   + 0.108475877660709 x[3,3] >= 0
 findWorstP[3,4]: z + 0.3412532525700636 cashProportion[3]
   - 0.3412532525700636 cashProportion[4] + 0.3908202875058653 x[3,1]
   + 0.1594505822633622 x[3,2] + 0.108475877660709 x[3,3]
   - 0.3908202875058653 x[4,1] - 0.1594505822633622 x[4,2]
   - 0.108475877660709 x[4,3] >= 0
 findWorstP[3,5]: z + 0.3412532525700636 cashProportion[3]
   - 0.3412532525700636 cashProportion[5] + 0.3908202875058653 x[3,1]
   + 0.1594505822633622 x[3,2] + 0.108475877660709 x[3,3]
   - 0.3908202875058653 x[5,1] - 0.1594505822633622 x[5,2]
   - 0.108475877660709 x[5,3] >= 0
 findWorstP[3,6]: z + 0.3412532525700636 cashProportion[3]
   - 0.3412532525700636 cashProportion[6] + 0.3908202875058653 x[3,1]
   + 0.1594505822633622 x[3,2] + 0.108475877660709 x[3,3]
   - 0.3908202875058653 x[6,1] - 0.1594505822633622 x[6,2]
   - 0.108475877660709 x[6,3] >= 0
 findWorstP[3,7]: z + 0.3412532525700636 cashProportion[3]
   - 0.3412532525700636 cashProportion[7] + 0.3908202875058653 x[3,1]
   + 0.1594505822633622 x[3,2] + 0.108475877660709 x[3,3]
   - 0.3908202875058653 x[7,1] - 0.1594505822633622 x[7,2]
   - 0.108475877660709 x[7,3] >= 0
 findWorstP[4,1]: z - 0.4857906242409522 cashProportion[1]
   + 0.4857906242409522 cashProportion[4] - 0.1573961622540685 x[1,1]
   - 0.1441583677435025 x[1,2] - 0.2126548457614768 x[1,3]
   + 0.1573961622540685 x[4,1] + 0.1441583677435025 x[4,2]
   + 0.2126548457614768 x[4,3] >= 0
 findWorstP[4,2]: z - 0.4857906242409522 cashProportion[2]
   + 0.4857906242409522 cashProportion[4] - 0.1573961622540685 x[2,1]
   - 0.1441583677435025 x[2,2] - 0.2126548457614768 x[2,3]
   + 0.1573961622540685 x[4,1] + 0.1441583677435025 x[4,2]
   + 0.2126548457614768 x[4,3] >= 0
 findWorstP[4,3]: z - 0.4857906242409522 cashProportion[3]
   + 0.4857906242409522 cashProportion[4] - 0.1573961622540685 x[3,1]
   - 0.1441583677435025 x[3,2] - 0.2126548457614768 x[3,3]
   + 0.1573961622540685 x[4,1] + 0.1441583677435025 x[4,2]
   + 0.2126548457614768 x[4,3] >= 0
 findWorstP[4,5]: z + 0.4857906242409522 cashProportion[4]
   - 0.4857906242409522 cashProportion[5] + 0.1573961622540685 x[4,1]
   + 0.1441583677435025 x[4,2] + 0.2126548457614768 x[4,3]
   - 0.1573961622540685 x[5,1] - 0.1441583677435025 x[5,2]
   - 0.2126548457614768 x[5,3] >= 0
 findWorstP[4,6]: z + 0.4857906242409522 cashProportion[4]
   - 0.4857906242409522 cashProportion[6] + 0.1573961622540685 x[4,1]
   + 0.1441583677435025 x[4,2] + 0.2126548457614768 x[4,3]
   - 0.1573961622540685 x[6,1] - 0.1441583677435025 x[6,2]
   - 0.2126548457614768 x[6,3] >= 0
 findWorstP[4,7]: z + 0.4857906242409522 cashProportion[4]
   - 0.4857906242409522 cashProportion[7] + 0.1573961622540685 x[4,1]
   + 0.1441583677435025 x[4,2] + 0.2126548457614768 x[4,3]
   - 0.1573961622540685 x[7,1] - 0.1441583677435025 x[7,2]
   - 0.2126548457614768 x[7,3] >= 0
 findWorstP[5,1]: z - 0.4407956361232024 cashProportion[1]
   + 0.4407956361232024 cashProportion[5] - 0.0114606865392033 x[1,1]
   - 0.0123973772659651 x[1,2] - 0.5353463000716292 x[1,3]
   + 0.0114606865392033 x[5,1] + 0.0123973772659651 x[5,2]
   + 0.5353463000716292 x[5,3] >= 0
 findWorstP[5,2]: z - 0.4407956361232024 cashProportion[2]
   + 0.4407956361232024 cashProportion[5] - 0.0114606865392033 x[2,1]
   - 0.0123973772659651 x[2,2] - 0.5353463000716292 x[2,3]
   + 0.0114606865392033 x[5,1] + 0.0123973772659651 x[5,2]
   + 0.5353463000716292 x[5,3] >= 0
 findWorstP[5,3]: z - 0.4407956361232024 cashProportion[3]
   + 0.4407956361232024 cashProportion[5] - 0.0114606865392033 x[3,1]
   - 0.0123973772659651 x[3,2] - 0.5353463000716292 x[3,3]
   + 0.0114606865392033 x[5,1] + 0.0123973772659651 x[5,2]
   + 0.5353463000716292 x[5,3] >= 0
 findWorstP[5,4]: z - 0.4407956361232024 cashProportion[4]
   + 0.4407956361232024 cashProportion[5] - 0.0114606865392033 x[4,1]
   - 0.0123973772659651 x[4,2] - 0.5353463000716292 x[4,3]
   + 0.0114606865392033 x[5,1] + 0.0123973772659651 x[5,2]
   + 0.5353463000716292 x[5,3] >= 0
 findWorstP[5,6]: z + 0.4407956361232024 cashProportion[5]
   - 0.4407956361232024 cashProportion[6] + 0.0114606865392033 x[5,1]
   + 0.0123973772659651 x[5,2] + 0.5353463000716292 x[5,3]
   - 0.0114606865392033 x[6,1] - 0.0123973772659651 x[6,2]
   - 0.5353463000716292 x[6,3] >= 0
 findWorstP[5,7]: z + 0.4407956361232024 cashProportion[5]
   - 0.4407956361232024 cashProportion[7] + 0.0114606865392033 x[5,1]
   + 0.0123973772659651 x[5,2] + 0.5353463000716292 x[5,3]
   - 0.0114606865392033 x[7,1] - 0.0123973772659651 x[7,2]
   - 0.5353463000716292 x[7,3] >= 0
 findWorstP[6,1]: z - 0.3177629488401653 cashProportion[1]
   + 0.3177629488401653 cashProportion[6] - 0.1408881474420083 x[1,1]
   - 0.2724817286304417 x[1,2] - 0.2688671750873848 x[1,3]
   + 0.1408881474420083 x[6,1] + 0.2724817286304417 x[6,2]
   + 0.2688671750873848 x[6,3] >= 0
 findWorstP[6,2]: z - 0.3177629488401653 cashProportion[2]
   + 0.3177629488401653 cashProportion[6] - 0.1408881474420083 x[2,1]
   - 0.2724817286304417 x[2,2] - 0.2688671750873848 x[2,3]
   + 0.1408881474420083 x[6,1] + 0.2724817286304417 x[6,2]
   + 0.2688671750873848 x[6,3] >= 0
 findWorstP[6,3]: z - 0.3177629488401653 cashProportion[3]
   + 0.3177629488401653 cashProportion[6] - 0.1408881474420083 x[3,1]
   - 0.2724817286304417 x[3,2] - 0.2688671750873848 x[3,3]
   + 0.1408881474420083 x[6,1] + 0.2724817286304417 x[6,2]
   + 0.2688671750873848 x[6,3] >= 0
 findWorstP[6,4]: z - 0.3177629488401653 cashProportion[4]
   + 0.3177629488401653 cashProportion[6] - 0.1408881474420083 x[4,1]
   - 0.2724817286304417 x[4,2] - 0.2688671750873848 x[4,3]
   + 0.1408881474420083 x[6,1] + 0.2724817286304417 x[6,2]
   + 0.2688671750873848 x[6,3] >= 0
 findWorstP[6,5]: z - 0.3177629488401653 cashProportion[5]
   + 0.3177629488401653 cashProportion[6] - 0.1408881474420083 x[5,1]
   - 0.2724817286304417 x[5,2] - 0.2688671750873848 x[5,3]
   + 0.1408881474420083 x[6,1] + 0.2724817286304417 x[6,2]
   + 0.2688671750873848 x[6,3] >= 0
 findWorstP[6,7]: z + 0.3177629488401653 cashProportion[6]
   - 0.3177629488401653 cashProportion[7] + 0.1408881474420083 x[6,1]
   + 0.2724817286304417 x[6,2] + 0.2688671750873848 x[6,3]
   - 0.1408881474420083 x[7,1] - 0.2724817286304417 x[7,2]
   - 0.2688671750873848 x[7,3] >= 0
 findWorstP[7,1]: z - 0.3172714653975808 cashProportion[1]
   + 0.3172714653975808 cashProportion[7] - 0.1845330160618679 x[1,1]
   - 0.102954590521515 x[1,2] - 0.3952409280190363 x[1,3]
   + 0.1845330160618679 x[7,1] + 0.102954590521515 x[7,2]
   + 0.3952409280190363 x[7,3] >= 0
 findWorstP[7,2]: z - 0.3172714653975808 cashProportion[2]
   + 0.3172714653975808 cashProportion[7] - 0.1845330160618679 x[2,1]
   - 0.102954590521515 x[2,2] - 0.3952409280190363 x[2,3]
   + 0.1845330160618679 x[7,1] + 0.102954590521515 x[7,2]
   + 0.3952409280190363 x[7,3] >= 0
 findWorstP[7,3]: z - 0.3172714653975808 cashProportion[3]
   + 0.3172714653975808 cashProportion[7] - 0.1845330160618679 x[3,1]
   - 0.102954590521515 x[3,2] - 0.3952409280190363 x[3,3]
   + 0.1845330160618679 x[7,1] + 0.102954590521515 x[7,2]
   + 0.3952409280190363 x[7,3] >= 0
 findWorstP[7,4]: z - 0.3172714653975808 cashProportion[4]
   + 0.3172714653975808 cashProportion[7] - 0.1845330160618679 x[4,1]
   - 0.102954590521515 x[4,2] - 0.3952409280190363 x[4,3]
   + 0.1845330160618679 x[7,1] + 0.102954590521515 x[7,2]
   + 0.3952409280190363 x[7,3] >= 0
 findWorstP[7,5]: z - 0.3172714653975808 cashProportion[5]
   + 0.3172714653975808 cashProportion[7] - 0.1845330160618679 x[5,1]
   - 0.102954590521515 x[5,2] - 0.3952409280190363 x[5,3]
   + 0.1845330160618679 x[7,1] + 0.102954590521515 x[7,2]
   + 0.3952409280190363 x[7,3] >= 0
 findWorstP[7,6]: z - 0.3172714653975808 cashProportion[6]
   + 0.3172714653975808 cashProportion[7] - 0.1845330160618679 x[6,1]
   - 0.102954590521515 x[6,2] - 0.3952409280190363 x[6,3]
   + 0.1845330160618679 x[7,1] + 0.102954590521515 x[7,2]
   + 0.3952409280190363 x[7,3] >= 0
Bounds
 z <= 1
 -infinity <= cashProportion[1] <= 1
 -infinity <= cashProportion[2] <= 1
 -infinity <= cashProportion[3] <= 1
 -infinity <= cashProportion[4] <= 1
 -infinity <= cashProportion[5] <= 1
 -infinity <= cashProportion[6] <= 1
 -infinity <= cashProportion[7] <= 1
Binaries
 x[1,1] x[1,2] x[1,3] x[2,1] x[2,2] x[2,3] x[3,1] x[3,2] x[3,3] x[4,1]
 x[4,2] x[4,3] x[5,1] x[5,2] x[5,3] x[6,1] x[6,2] x[6,3] x[7,1] x[7,2]
 x[7,3]
End
