data/mps_files/pEFS/123_8.mps
NAME foo
ROWS
 N  OBJ
 E  allocateEach[1]
 E  allocateEach[2]
 E  allocateEach[3]
 E  allocateAllCash
 G  findWorstP[1,2]
 G  findWorstP[1,3]
 G  findWorstP[1,4]
 G  findWorstP[1,5]
 G  findWorstP[1,6]
 G  findWorstP[1,7]
 G  findWorstP[2,1]
 G  findWorstP[2,3]
 G  findWorstP[2,4]
 G  findWorstP[2,5]
 G  findWorstP[2,6]
 G  findWorstP[2,7]
 G  findWorstP[3,1]
 G  findWorstP[3,2]
 G  findWorstP[3,4]
 G  findWorstP[3,5]
 G  findWorstP[3,6]
 G  findWorstP[3,7]
 G  findWorstP[4,1]
 G  findWorstP[4,2]
 G  findWorstP[4,3]
 G  findWorstP[4,5]
 G  findWorstP[4,6]
 G  findWorstP[4,7]
 G  findWorstP[5,1]
 G  findWorstP[5,2]
 G  findWorstP[5,3]
 G  findWorstP[5,4]
 G  findWorstP[5,6]
 G  findWorstP[5,7]
 G  findWorstP[6,1]
 G  findWorstP[6,2]
 G  findWorstP[6,3]
 G  findWorstP[6,4]
 G  findWorstP[6,5]
 G  findWorstP[6,7]
 G  findWorstP[7,1]
 G  findWorstP[7,2]
 G  findWorstP[7,3]
 G  findWorstP[7,4]
 G  findWorstP[7,5]
 G  findWorstP[7,6]
COLUMNS
    z         OBJ       1
    z         findWorstP[1,2]  1
    z         findWorstP[1,3]  1
    z         findWorstP[1,4]  1
    z         findWorstP[1,5]  1
    z         findWorstP[1,6]  1
    z         findWorstP[1,7]  1
    z         findWorstP[2,1]  1
    z         findWorstP[2,3]  1
    z         findWorstP[2,4]  1
    z         findWorstP[2,5]  1
    z         findWorstP[2,6]  1
    z         findWorstP[2,7]  1
    z         findWorstP[3,1]  1
    z         findWorstP[3,2]  1
    z         findWorstP[3,4]  1
    z         findWorstP[3,5]  1
    z         findWorstP[3,6]  1
    z         findWorstP[3,7]  1
    z         findWorstP[4,1]  1
    z         findWorstP[4,2]  1
    z         findWorstP[4,3]  1
    z         findWorstP[4,5]  1
    z         findWorstP[4,6]  1
    z         findWorstP[4,7]  1
    z         findWorstP[5,1]  1
    z         findWorstP[5,2]  1
    z         findWorstP[5,3]  1
    z         findWorstP[5,4]  1
    z         findWorstP[5,6]  1
    z         findWorstP[5,7]  1
    z         findWorstP[6,1]  1
    z         findWorstP[6,2]  1
    z         findWorstP[6,3]  1
    z         findWorstP[6,4]  1
    z         findWorstP[6,5]  1
    z         findWorstP[6,7]  1
    z         findWorstP[7,1]  1
    z         findWorstP[7,2]  1
    z         findWorstP[7,3]  1
    z         findWorstP[7,4]  1
    z         findWorstP[7,5]  1
    z         findWorstP[7,6]  1
    cashProportion[1]  allocateAllCash  1
    cashProportion[1]  findWorstP[1,2]  3.5815015445225412e-01
    cashProportion[1]  findWorstP[1,3]  3.5815015445225412e-01
    cashProportion[1]  findWorstP[1,4]  3.5815015445225412e-01
    cashProportion[1]  findWorstP[1,5]  3.5815015445225412e-01
    cashProportion[1]  findWorstP[1,6]  3.5815015445225412e-01
    cashProportion[1]  findWorstP[1,7]  3.5815015445225412e-01
    cashProportion[1]  findWorstP[2,1]  -4.0683482506102525e-01
    cashProportion[1]  findWorstP[3,1]  -3.4125325257006361e-01
    cashProportion[1]  findWorstP[4,1]  -4.8579062424095215e-01
    cashProportion[1]  findWorstP[5,1]  -4.4079563612320244e-01
    cashProportion[1]  findWorstP[6,1]  -3.1776294884016526e-01
    cashProportion[1]  findWorstP[7,1]  -3.1727146539758083e-01
    cashProportion[2]  allocateAllCash  1
    cashProportion[2]  findWorstP[1,2]  -3.5815015445225412e-01
    cashProportion[2]  findWorstP[2,1]  4.0683482506102525e-01
    cashProportion[2]  findWorstP[2,3]  4.0683482506102525e-01
    cashProportion[2]  findWorstP[2,4]  4.0683482506102525e-01
    cashProportion[2]  findWorstP[2,5]  4.0683482506102525e-01
    cashProportion[2]  findWorstP[2,6]  4.0683482506102525e-01
    cashProportion[2]  findWorstP[2,7]  4.0683482506102525e-01
    cashProportion[2]  findWorstP[3,2]  -3.4125325257006361e-01
    cashProportion[2]  findWorstP[4,2]  -4.8579062424095215e-01
    cashProportion[2]  findWorstP[5,2]  -4.4079563612320244e-01
    cashProportion[2]  findWorstP[6,2]  -3.1776294884016526e-01
    cashProportion[2]  findWorstP[7,2]  -3.1727146539758083e-01
    cashProportion[3]  allocateAllCash  1
    cashProportion[3]  findWorstP[1,3]  -3.5815015445225412e-01
    cashProportion[3]  findWorstP[2,3]  -4.0683482506102525e-01
    cashProportion[3]  findWorstP[3,1]  3.4125325257006361e-01
    cashProportion[3]  findWorstP[3,2]  3.4125325257006361e-01
    cashProportion[3]  findWorstP[3,4]  3.4125325257006361e-01
    cashProportion[3]  findWorstP[3,5]  3.4125325257006361e-01
    cashProportion[3]  findWorstP[3,6]  3.4125325257006361e-01
    cashProportion[3]  findWorstP[3,7]  3.4125325257006361e-01
    cashProportion[3]  findWorstP[4,3]  -4.8579062424095215e-01
    cashProportion[3]  findWorstP[5,3]  -4.4079563612320244e-01
    cashProportion[3]  findWorstP[6,3]  -3.1776294884016526e-01
    cashProportion[3]  findWorstP[7,3]  -3.1727146539758083e-01
    cashProportion[4]  allocateAllCash  1
    cashProportion[4]  findWorstP[1,4]  -3.5815015445225412e-01
    cashProportion[4]  findWorstP[2,4]  -4.0683482506102525e-01
    cashProportion[4]  findWorstP[3,4]  -3.4125325257006361e-01
    cashProportion[4]  findWorstP[4,1]  4.8579062424095215e-01
    cashProportion[4]  findWorstP[4,2]  4.8579062424095215e-01
    cashProportion[4]  findWorstP[4,3]  4.8579062424095215e-01
    cashProportion[4]  findWorstP[4,5]  4.8579062424095215e-01
    cashProportion[4]  findWorstP[4,6]  4.8579062424095215e-01
    cashProportion[4]  findWorstP[4,7]  4.8579062424095215e-01
    cashProportion[4]  findWorstP[5,4]  -4.4079563612320244e-01
    cashProportion[4]  findWorstP[6,4]  -3.1776294884016526e-01
    cashProportion[4]  findWorstP[7,4]  -3.1727146539758083e-01
    cashProportion[5]  allocateAllCash  1
    cashProportion[5]  findWorstP[1,5]  -3.5815015445225412e-01
    cashProportion[5]  findWorstP[2,5]  -4.0683482506102525e-01
    cashProportion[5]  findWorstP[3,5]  -3.4125325257006361e-01
    cashProportion[5]  findWorstP[4,5]  -4.8579062424095215e-01
    cashProportion[5]  findWorstP[5,1]  4.4079563612320244e-01
    cashProportion[5]  findWorstP[5,2]  4.4079563612320244e-01
    cashProportion[5]  findWorstP[5,3]  4.4079563612320244e-01
    cashProportion[5]  findWorstP[5,4]  4.4079563612320244e-01
    cashProportion[5]  findWorstP[5,6]  4.4079563612320244e-01
    cashProportion[5]  findWorstP[5,7]  4.4079563612320244e-01
    cashProportion[5]  findWorstP[6,5]  -3.1776294884016526e-01
    cashProportion[5]  findWorstP[7,5]  -3.1727146539758083e-01
    cashProportion[6]  allocateAllCash  1
    cashProportion[6]  findWorstP[1,6]  -3.5815015445225412e-01
    cashProportion[6]  findWorstP[2,6]  -4.0683482506102525e-01
    cashProportion[6]  findWorstP[3,6]  -3.4125325257006361e-01
    cashProportion[6]  findWorstP[4,6]  -4.8579062424095215e-01
    cashProportion[6]  findWorstP[5,6]  -4.4079563612320244e-01
    cashProportion[6]  findWorstP[6,1]  3.1776294884016526e-01
    cashProportion[6]  findWorstP[6,2]  3.1776294884016526e-01
    cashProportion[6]  findWorstP[6,3]  3.1776294884016526e-01
    cashProportion[6]  findWorstP[6,4]  3.1776294884016526e-01
    cashProportion[6]  findWorstP[6,5]  3.1776294884016526e-01
    cashProportion[6]  findWorstP[6,7]  3.1776294884016526e-01
    cashProportion[6]  findWorstP[7,6]  -3.1727146539758083e-01
    cashProportion[7]  allocateAllCash  1
    cashProportion[7]  findWorstP[1,7]  -3.5815015445225412e-01
    cashProportion[7]  findWorstP[2,7]  -4.0683482506102525e-01
    cashProportion[7]  findWorstP[3,7]  -3.4125325257006361e-01
    cashProportion[7]  findWorstP[4,7]  -4.8579062424095215e-01
    cashProportion[7]  findWorstP[5,7]  -4.4079563612320244e-01
    cashProportion[7]  findWorstP[6,7]  -3.1776294884016526e-01
    cashProportion[7]  findWorstP[7,1]  3.1727146539758083e-01
    cashProportion[7]  findWorstP[7,2]  3.1727146539758083e-01
    cashProportion[7]  findWorstP[7,3]  3.1727146539758083e-01
    cashProportion[7]  findWorstP[7,4]  3.1727146539758083e-01
    cashProportion[7]  findWorstP[7,5]  3.1727146539758083e-01
    cashProportion[7]  findWorstP[7,6]  3.1727146539758083e-01
    MARKER    'MARKER'                 'INTORG'
    x[1,1]    allocateEach[1]  1
    x[1,1]    findWorstP[1,2]  4.9917177776782909e-02
    x[1,1]    findWorstP[1,3]  4.9917177776782909e-02
    x[1,1]    findWorstP[1,4]  4.9917177776782909e-02
    x[1,1]    findWorstP[1,5]  4.9917177776782909e-02
    x[1,1]    findWorstP[1,6]  4.9917177776782909e-02
    x[1,1]    findWorstP[1,7]  4.9917177776782909e-02
    x[1,1]    findWorstP[2,1]  -1.5276647681041497e-01
    x[1,1]    findWorstP[3,1]  -3.9082028750586528e-01
    x[1,1]    findWorstP[4,1]  -1.5739616225406847e-01
    x[1,1]    findWorstP[5,1]  -1.1460686539203260e-02
    x[1,1]    findWorstP[6,1]  -1.4088814744200825e-01
    x[1,1]    findWorstP[7,1]  -1.8453301606186792e-01
    x[1,2]    allocateEach[2]  1
    x[1,2]    findWorstP[1,2]  2.6588172091149209e-01
    x[1,2]    findWorstP[1,3]  2.6588172091149209e-01
    x[1,2]    findWorstP[1,4]  2.6588172091149209e-01
    x[1,2]    findWorstP[1,5]  2.6588172091149209e-01
    x[1,2]    findWorstP[1,6]  2.6588172091149209e-01
    x[1,2]    findWorstP[1,7]  2.6588172091149209e-01
    x[1,2]    findWorstP[2,1]  -1.4010374288039057e-01
    x[1,2]    findWorstP[3,1]  -1.5945058226336220e-01
    x[1,2]    findWorstP[4,1]  -1.4415836774350252e-01
    x[1,2]    findWorstP[5,1]  -1.2397377265965065e-02
    x[1,2]    findWorstP[6,1]  -2.7248172863044168e-01
    x[1,2]    findWorstP[7,1]  -1.0295459052151495e-01
    x[1,3]    allocateEach[3]  1
    x[1,3]    findWorstP[1,2]  3.2605094685947078e-01
    x[1,3]    findWorstP[1,3]  3.2605094685947078e-01
    x[1,3]    findWorstP[1,4]  3.2605094685947078e-01
    x[1,3]    findWorstP[1,5]  3.2605094685947078e-01
    x[1,3]    findWorstP[1,6]  3.2605094685947078e-01
    x[1,3]    findWorstP[1,7]  3.2605094685947078e-01
    x[1,3]    findWorstP[2,1]  -3.0029495524816924e-01
    x[1,3]    findWorstP[3,1]  -1.0847587766070896e-01
    x[1,3]    findWorstP[4,1]  -2.1265484576147678e-01
    x[1,3]    findWorstP[5,1]  -5.3534630007162920e-01
    x[1,3]    findWorstP[6,1]  -2.6886717508738478e-01
    x[1,3]    findWorstP[7,1]  -3.9524092801903626e-01
    x[2,1]    allocateEach[1]  1
    x[2,1]    findWorstP[1,2]  -4.9917177776782909e-02
    x[2,1]    findWorstP[2,1]  1.5276647681041497e-01
    x[2,1]    findWorstP[2,3]  1.5276647681041497e-01
    x[2,1]    findWorstP[2,4]  1.5276647681041497e-01
    x[2,1]    findWorstP[2,5]  1.5276647681041497e-01
    x[2,1]    findWorstP[2,6]  1.5276647681041497e-01
    x[2,1]    findWorstP[2,7]  1.5276647681041497e-01
    x[2,1]    findWorstP[3,2]  -3.9082028750586528e-01
    x[2,1]    findWorstP[4,2]  -1.5739616225406847e-01
    x[2,1]    findWorstP[5,2]  -1.1460686539203260e-02
    x[2,1]    findWorstP[6,2]  -1.4088814744200825e-01
    x[2,1]    findWorstP[7,2]  -1.8453301606186792e-01
    x[2,2]    allocateEach[2]  1
    x[2,2]    findWorstP[1,2]  -2.6588172091149209e-01
    x[2,2]    findWorstP[2,1]  1.4010374288039057e-01
    x[2,2]    findWorstP[2,3]  1.4010374288039057e-01
    x[2,2]    findWorstP[2,4]  1.4010374288039057e-01
    x[2,2]    findWorstP[2,5]  1.4010374288039057e-01
    x[2,2]    findWorstP[2,6]  1.4010374288039057e-01
    x[2,2]    findWorstP[2,7]  1.4010374288039057e-01
    x[2,2]    findWorstP[3,2]  -1.5945058226336220e-01
    x[2,2]    findWorstP[4,2]  -1.4415836774350252e-01
    x[2,2]    findWorstP[5,2]  -1.2397377265965065e-02
    x[2,2]    findWorstP[6,2]  -2.7248172863044168e-01
    x[2,2]    findWorstP[7,2]  -1.0295459052151495e-01
    x[2,3]    allocateEach[3]  1
    x[2,3]    findWorstP[1,2]  -3.2605094685947078e-01
    x[2,3]    findWorstP[2,1]  3.0029495524816924e-01
    x[2,3]    findWorstP[2,3]  3.0029495524816924e-01
    x[2,3]    findWorstP[2,4]  3.0029495524816924e-01
    x[2,3]    findWorstP[2,5]  3.0029495524816924e-01
    x[2,3]    findWorstP[2,6]  3.0029495524816924e-01
    x[2,3]    findWorstP[2,7]  3.0029495524816924e-01
    x[2,3]    findWorstP[3,2]  -1.0847587766070896e-01
    x[2,3]    findWorstP[4,2]  -2.1265484576147678e-01
    x[2,3]    findWorstP[5,2]  -5.3534630007162920e-01
    x[2,3]    findWorstP[6,2]  -2.6886717508738478e-01
    x[2,3]    findWorstP[7,2]  -3.9524092801903626e-01
    x[3,1]    allocateEach[1]  1
    x[3,1]    findWorstP[1,3]  -4.9917177776782909e-02
    x[3,1]    findWorstP[2,3]  -1.5276647681041497e-01
    x[3,1]    findWorstP[3,1]  3.9082028750586528e-01
    x[3,1]    findWorstP[3,2]  3.9082028750586528e-01
    x[3,1]    findWorstP[3,4]  3.9082028750586528e-01
    x[3,1]    findWorstP[3,5]  3.9082028750586528e-01
    x[3,1]    findWorstP[3,6]  3.9082028750586528e-01
    x[3,1]    findWorstP[3,7]  3.9082028750586528e-01
    x[3,1]    findWorstP[4,3]  -1.5739616225406847e-01
    x[3,1]    findWorstP[5,3]  -1.1460686539203260e-02
    x[3,1]    findWorstP[6,3]  -1.4088814744200825e-01
    x[3,1]    findWorstP[7,3]  -1.8453301606186792e-01
    x[3,2]    allocateEach[2]  1
    x[3,2]    findWorstP[1,3]  -2.6588172091149209e-01
    x[3,2]    findWorstP[2,3]  -1.4010374288039057e-01
    x[3,2]    findWorstP[3,1]  1.5945058226336220e-01
    x[3,2]    findWorstP[3,2]  1.5945058226336220e-01
    x[3,2]    findWorstP[3,4]  1.5945058226336220e-01
    x[3,2]    findWorstP[3,5]  1.5945058226336220e-01
    x[3,2]    findWorstP[3,6]  1.5945058226336220e-01
    x[3,2]    findWorstP[3,7]  1.5945058226336220e-01
    x[3,2]    findWorstP[4,3]  -1.4415836774350252e-01
    x[3,2]    findWorstP[5,3]  -1.2397377265965065e-02
    x[3,2]    findWorstP[6,3]  -2.7248172863044168e-01
    x[3,2]    findWorstP[7,3]  -1.0295459052151495e-01
    x[3,3]    allocateEach[3]  1
    x[3,3]    findWorstP[1,3]  -3.2605094685947078e-01
    x[3,3]    findWorstP[2,3]  -3.0029495524816924e-01
    x[3,3]    findWorstP[3,1]  1.0847587766070896e-01
    x[3,3]    findWorstP[3,2]  1.0847587766070896e-01
    x[3,3]    findWorstP[3,4]  1.0847587766070896e-01
    x[3,3]    findWorstP[3,5]  1.0847587766070896e-01
    x[3,3]    findWorstP[3,6]  1.0847587766070896e-01
    x[3,3]    findWorstP[3,7]  1.0847587766070896e-01
    x[3,3]    findWorstP[4,3]  -2.1265484576147678e-01
    x[3,3]    findWorstP[5,3]  -5.3534630007162920e-01
    x[3,3]    findWorstP[6,3]  -2.6886717508738478e-01
    x[3,3]    findWorstP[7,3]  -3.9524092801903626e-01
    x[4,1]    allocateEach[1]  1
    x[4,1]    findWorstP[1,4]  -4.9917177776782909e-02
    x[4,1]    findWorstP[2,4]  -1.5276647681041497e-01
    x[4,1]    findWorstP[3,4]  -3.9082028750586528e-01
    x[4,1]    findWorstP[4,1]  1.5739616225406847e-01
    x[4,1]    findWorstP[4,2]  1.5739616225406847e-01
    x[4,1]    findWorstP[4,3]  1.5739616225406847e-01
    x[4,1]    findWorstP[4,5]  1.5739616225406847e-01
    x[4,1]    findWorstP[4,6]  1.5739616225406847e-01
    x[4,1]    findWorstP[4,7]  1.5739616225406847e-01
    x[4,1]    findWorstP[5,4]  -1.1460686539203260e-02
    x[4,1]    findWorstP[6,4]  -1.4088814744200825e-01
    x[4,1]    findWorstP[7,4]  -1.8453301606186792e-01
    x[4,2]    allocateEach[2]  1
    x[4,2]    findWorstP[1,4]  -2.6588172091149209e-01
    x[4,2]    findWorstP[2,4]  -1.4010374288039057e-01
    x[4,2]    findWorstP[3,4]  -1.5945058226336220e-01
    x[4,2]    findWorstP[4,1]  1.4415836774350252e-01
    x[4,2]    findWorstP[4,2]  1.4415836774350252e-01
    x[4,2]    findWorstP[4,3]  1.4415836774350252e-01
    x[4,2]    findWorstP[4,5]  1.4415836774350252e-01
    x[4,2]    findWorstP[4,6]  1.4415836774350252e-01
    x[4,2]    findWorstP[4,7]  1.4415836774350252e-01
    x[4,2]    findWorstP[5,4]  -1.2397377265965065e-02
    x[4,2]    findWorstP[6,4]  -2.7248172863044168e-01
    x[4,2]    findWorstP[7,4]  -1.0295459052151495e-01
    x[4,3]    allocateEach[3]  1
    x[4,3]    findWorstP[1,4]  -3.2605094685947078e-01
    x[4,3]    findWorstP[2,4]  -3.0029495524816924e-01
    x[4,3]    findWorstP[3,4]  -1.0847587766070896e-01
    x[4,3]    findWorstP[4,1]  2.1265484576147678e-01
    x[4,3]    findWorstP[4,2]  2.1265484576147678e-01
    x[4,3]    findWorstP[4,3]  2.1265484576147678e-01
    x[4,3]    findWorstP[4,5]  2.1265484576147678e-01
    x[4,3]    findWorstP[4,6]  2.1265484576147678e-01
    x[4,3]    findWorstP[4,7]  2.1265484576147678e-01
    x[4,3]    findWorstP[5,4]  -5.3534630007162920e-01
    x[4,3]    findWorstP[6,4]  -2.6886717508738478e-01
    x[4,3]    findWorstP[7,4]  -3.9524092801903626e-01
    x[5,1]    allocateEach[1]  1
    x[5,1]    findWorstP[1,5]  -4.9917177776782909e-02
    x[5,1]    findWorstP[2,5]  -1.5276647681041497e-01
    x[5,1]    findWorstP[3,5]  -3.9082028750586528e-01
    x[5,1]    findWorstP[4,5]  -1.5739616225406847e-01
    x[5,1]    findWorstP[5,1]  1.1460686539203260e-02
    x[5,1]    findWorstP[5,2]  1.1460686539203260e-02
    x[5,1]    findWorstP[5,3]  1.1460686539203260e-02
    x[5,1]    findWorstP[5,4]  1.1460686539203260e-02
    x[5,1]    findWorstP[5,6]  1.1460686539203260e-02
    x[5,1]    findWorstP[5,7]  1.1460686539203260e-02
    x[5,1]    findWorstP[6,5]  -1.4088814744200825e-01
    x[5,1]    findWorstP[7,5]  -1.8453301606186792e-01
    x[5,2]    allocateEach[2]  1
    x[5,2]    findWorstP[1,5]  -2.6588172091149209e-01
    x[5,2]    findWorstP[2,5]  -1.4010374288039057e-01
    x[5,2]    findWorstP[3,5]  -1.5945058226336220e-01
    x[5,2]    findWorstP[4,5]  -1.4415836774350252e-01
    x[5,2]    findWorstP[5,1]  1.2397377265965065e-02
    x[5,2]    findWorstP[5,2]  1.2397377265965065e-02
    x[5,2]    findWorstP[5,3]  1.2397377265965065e-02
    x[5,2]    findWorstP[5,4]  1.2397377265965065e-02
    x[5,2]    findWorstP[5,6]  1.2397377265965065e-02
    x[5,2]    findWorstP[5,7]  1.2397377265965065e-02
    x[5,2]    findWorstP[6,5]  -2.7248172863044168e-01
    x[5,2]    findWorstP[7,5]  -1.0295459052151495e-01
    x[5,3]    allocateEach[3]  1
    x[5,3]    findWorstP[1,5]  -3.2605094685947078e-01
    x[5,3]    findWorstP[2,5]  -3.0029495524816924e-01
    x[5,3]    findWorstP[3,5]  -1.0847587766070896e-01
    x[5,3]    findWorstP[4,5]  -2.1265484576147678e-01
    x[5,3]    findWorstP[5,1]  5.3534630007162920e-01
    x[5,3]    findWorstP[5,2]  5.3534630007162920e-01
    x[5,3]    findWorstP[5,3]  5.3534630007162920e-01
    x[5,3]    findWorstP[5,4]  5.3534630007162920e-01
    x[5,3]    findWorstP[5,6]  5.3534630007162920e-01
    x[5,3]    findWorstP[5,7]  5.3534630007162920e-01
    x[5,3]    findWorstP[6,5]  -2.6886717508738478e-01
    x[5,3]    findWorstP[7,5]  -3.9524092801903626e-01
    x[6,1]    allocateEach[1]  1
    x[6,1]    findWorstP[1,6]  -4.9917177776782909e-02
    x[6,1]    findWorstP[2,6]  -1.5276647681041497e-01
    x[6,1]    findWorstP[3,6]  -3.9082028750586528e-01
    x[6,1]    findWorstP[4,6]  -1.5739616225406847e-01
    x[6,1]    findWorstP[5,6]  -1.1460686539203260e-02
    x[6,1]    findWorstP[6,1]  1.4088814744200825e-01
    x[6,1]    findWorstP[6,2]  1.4088814744200825e-01
    x[6,1]    findWorstP[6,3]  1.4088814744200825e-01
    x[6,1]    findWorstP[6,4]  1.4088814744200825e-01
    x[6,1]    findWorstP[6,5]  1.4088814744200825e-01
    x[6,1]    findWorstP[6,7]  1.4088814744200825e-01
    x[6,1]    findWorstP[7,6]  -1.8453301606186792e-01
    x[6,2]    allocateEach[2]  1
    x[6,2]    findWorstP[1,6]  -2.6588172091149209e-01
    x[6,2]    findWorstP[2,6]  -1.4010374288039057e-01
    x[6,2]    findWorstP[3,6]  -1.5945058226336220e-01
    x[6,2]    findWorstP[4,6]  -1.4415836774350252e-01
    x[6,2]    findWorstP[5,6]  -1.2397377265965065e-02
    x[6,2]    findWorstP[6,1]  2.7248172863044168e-01
    x[6,2]    findWorstP[6,2]  2.7248172863044168e-01
    x[6,2]    findWorstP[6,3]  2.7248172863044168e-01
    x[6,2]    findWorstP[6,4]  2.7248172863044168e-01
    x[6,2]    findWorstP[6,5]  2.7248172863044168e-01
    x[6,2]    findWorstP[6,7]  2.7248172863044168e-01
    x[6,2]    findWorstP[7,6]  -1.0295459052151495e-01
    x[6,3]    allocateEach[3]  1
    x[6,3]    findWorstP[1,6]  -3.2605094685947078e-01
    x[6,3]    findWorstP[2,6]  -3.0029495524816924e-01
    x[6,3]    findWorstP[3,6]  -1.0847587766070896e-01
    x[6,3]    findWorstP[4,6]  -2.1265484576147678e-01
    x[6,3]    findWorstP[5,6]  -5.3534630007162920e-01
    x[6,3]    findWorstP[6,1]  2.6886717508738478e-01
    x[6,3]    findWorstP[6,2]  2.6886717508738478e-01
    x[6,3]    findWorstP[6,3]  2.6886717508738478e-01
    x[6,3]    findWorstP[6,4]  2.6886717508738478e-01
    x[6,3]    findWorstP[6,5]  2.6886717508738478e-01
    x[6,3]    findWorstP[6,7]  2.6886717508738478e-01
    x[6,3]    findWorstP[7,6]  -3.9524092801903626e-01
    x[7,1]    allocateEach[1]  1
    x[7,1]    findWorstP[1,7]  -4.9917177776782909e-02
    x[7,1]    findWorstP[2,7]  -1.5276647681041497e-01
    x[7,1]    findWorstP[3,7]  -3.9082028750586528e-01
    x[7,1]    findWorstP[4,7]  -1.5739616225406847e-01
    x[7,1]    findWorstP[5,7]  -1.1460686539203260e-02
    x[7,1]    findWorstP[6,7]  -1.4088814744200825e-01
    x[7,1]    findWorstP[7,1]  1.8453301606186792e-01
    x[7,1]    findWorstP[7,2]  1.8453301606186792e-01
    x[7,1]    findWorstP[7,3]  1.8453301606186792e-01
    x[7,1]    findWorstP[7,4]  1.8453301606186792e-01
    x[7,1]    findWorstP[7,5]  1.8453301606186792e-01
    x[7,1]    findWorstP[7,6]  1.8453301606186792e-01
    x[7,2]    allocateEach[2]  1
    x[7,2]    findWorstP[1,7]  -2.6588172091149209e-01
    x[7,2]    findWorstP[2,7]  -1.4010374288039057e-01
    x[7,2]    findWorstP[3,7]  -1.5945058226336220e-01
    x[7,2]    findWorstP[4,7]  -1.4415836774350252e-01
    x[7,2]    findWorstP[5,7]  -1.2397377265965065e-02
    x[7,2]    findWorstP[6,7]  -2.7248172863044168e-01
    x[7,2]    findWorstP[7,1]  1.0295459052151495e-01
    x[7,2]    findWorstP[7,2]  1.0295459052151495e-01
    x[7,2]    findWorstP[7,3]  1.0295459052151495e-01
    x[7,2]    findWorstP[7,4]  1.0295459052151495e-01
    x[7,2]    findWorstP[7,5]  1.0295459052151495e-01
    x[7,2]    findWorstP[7,6]  1.0295459052151495e-01
    x[7,3]    allocateEach[3]  1
    x[7,3]    findWorstP[1,7]  -3.2605094685947078e-01
    x[7,3]    findWorstP[2,7]  -3.0029495524816924e-01
    x[7,3]    findWorstP[3,7]  -1.0847587766070896e-01
    x[7,3]    findWorstP[4,7]  -2.1265484576147678e-01
    x[7,3]    findWorstP[5,7]  -5.3534630007162920e-01
    x[7,3]    findWorstP[6,7]  -2.6886717508738478e-01
    x[7,3]    findWorstP[7,1]  3.9524092801903626e-01
    x[7,3]    findWorstP[7,2]  3.9524092801903626e-01
    x[7,3]    findWorstP[7,3]  3.9524092801903626e-01
    x[7,3]    findWorstP[7,4]  3.9524092801903626e-01
    x[7,3]    findWorstP[7,5]  3.9524092801903626e-01
    x[7,3]    findWorstP[7,6]  3.9524092801903626e-01
    MARKER    'MARKER'                 'INTEND'
RHS
    RHS1      allocateEach[1]  1
    RHS1      allocateEach[2]  1
    RHS1      allocateEach[3]  1
    RHS1      allocateAllCash  1
BOUNDS
 UP BND1      z         1
 MI BND1      cashProportion[1]
 UP BND1      cashProportion[1]  1
 MI BND1      cashProportion[2]
 UP BND1      cashProportion[2]  1
 MI BND1      cashProportion[3]
 UP BND1      cashProportion[3]  1
 MI BND1      cashProportion[4]
 UP BND1      cashProportion[4]  1
 MI BND1      cashProportion[5]
 UP BND1      cashProportion[5]  1
 MI BND1      cashProportion[6]
 UP BND1      cashProportion[6]  1
 MI BND1      cashProportion[7]
 UP BND1      cashProportion[7]  1
 BV BND1      x[1,1]  
 BV BND1      x[1,2]  
 BV BND1      x[1,3]  
 BV BND1      x[2,1]  
 BV BND1      x[2,2]  
 BV BND1      x[2,3]  
 BV BND1      x[3,1]  
 BV BND1      x[3,2]  
 BV BND1      x[3,3]  
 BV BND1      x[4,1]  
 BV BND1      x[4,2]  
 BV BND1      x[4,3]  
 BV BND1      x[5,1]  
 BV BND1      x[5,2]  
 BV BND1      x[5,3]  
 BV BND1      x[6,1]  
 BV BND1      x[6,2]  
 BV BND1      x[6,3]  
 BV BND1      x[7,1]  
 BV BND1      x[7,2]  
 BV BND1      x[7,3]  
ENDATA
